1, 39, 42, 43, 51, 50, 48, 49, 41, 40, 38, 20, 19, 1
1, 18, 2, 4, 6, 5, 13, 9, 12, 11, 10, 8, 7, 3, 16, 14, 1
1, 35, 34, 33, 36, 29, 28, 27, 21, 22, 53, 52, 15, 1
1, 17, 26, 31, 32, 24, 37, 47, 46, 45, 44, 25, 23, 30, 1
